NAME          BLANK   
ROWS
 N  OBJROW
 L  R0000000
COLUMNS
    C0000000  OBJROW     -513.         R0000000  805.        
    C0000001  OBJROW     -225.         R0000000  485.        
    C0000002  OBJROW     -708.         R0000000  682.        
    C0000003  OBJROW     -902.         R0000000  714.        
    C0000004  OBJROW     -926.         R0000000  751.        
    C0000005  OBJROW     -294.         R0000000  17.         
    C0000006  OBJROW     -124.         R0000000  721.        
    C0000007  OBJROW     -276.         R0000000  761.        
    C0000008  OBJROW     -850.         R0000000  402.        
    C0000009  OBJROW     -17.          R0000000  288.        
RHS
    RHS       R0000000  14444.      
BOUNDS
 BV BOUND     C0000000  1.          
 BV BOUND     C0000001  1.          
 BV BOUND     C0000002  1.          
 BV BOUND     C0000003  1.          
 BV BOUND     C0000004  1.          
 BV BOUND     C0000005  1.          
 BV BOUND     C0000006  1.          
 BV BOUND     C0000007  1.          
 BV BOUND     C0000008  1.          
 BV BOUND     C0000009  1.          
ENDATA
